build/foo.lp
\Problem name: 

Minimize
obj: 300 x8 + 240 x9 + 210 x10 + 100 x11 + 150 x12 + 120 x13 + 300 x14 + 240 x15 + 210 x16 + 100 x17
 + 150 x18 + 120 x19
Subject To
cons0:  x0 - x1 - x8 <= 0
cons1:  x0 - x2 - x9 <= 0
cons2:  x0 - x3 - x10 <= 0
cons3:  x1 - x2 - x11 <= 0
cons4:  x1 - x3 - x12 <= 0
cons5:  x2 - x3 - x13 <= 0
cons6:  - x0 + x1 - x8 <= 0
cons7:  - x0 + x2 - x9 <= 0
cons8:  - x0 + x3 - x10 <= 0
cons9:  - x1 + x2 - x11 <= 0
cons10:  - x1 + x3 - x12 <= 0
cons11:  - x2 + x3 - x13 <= 0
cons12:  x4 - x5 - x14 <= 0
cons13:  x4 - x6 - x15 <= 0
cons14:  x4 - x7 - x16 <= 0
cons15:  x5 - x6 - x17 <= 0
cons16:  x5 - x7 - x18 <= 0
cons17:  x6 - x7 - x19 <= 0
cons18:  - x4 + x5 - x14 <= 0
cons19:  - x4 + x6 - x15 <= 0
cons20:  - x4 + x7 - x16 <= 0
cons21:  - x5 + x6 - x17 <= 0
cons22:  - x5 + x7 - x18 <= 0
cons23:  - x6 + x7 - x19 <= 0
cons24:  x0 - x1 + 51 x20 <= 45
cons25:  x0 - x2 + 51 x21 <= 47
cons26:  x0 - x3 + 51 x22 <= 47.500000000
cons27:  x1 - x2 + 51 x23 <= 46
cons28:  x1 - x3 + 51 x24 <= 46.500000000
cons29:  x2 - x3 + 51 x25 <= 48.500000000
cons30:  - x0 + x1 + 51 x26 <= 45
cons31:  - x0 + x2 + 51 x27 <= 47
cons32:  - x0 + x3 + 51 x28 <= 47.500000000
cons33:  - x1 + x2 + 51 x29 <= 46
cons34:  - x1 + x3 + 51 x30 <= 46.500000000
cons35:  - x2 + x3 + 51 x31 <= 48.500000000
cons36:  x4 - x5 + 86 x32 <= 80.500000000
cons37:  x4 - x6 + 86 x33 <= 81.500000000
cons38:  x4 - x7 + 86 x34 <= 81.500000000
cons39:  x5 - x6 + 86 x35 <= 82
cons40:  x5 - x7 + 86 x36 <= 82
cons41:  x6 - x7 + 86 x37 <= 83
cons42:  - x4 + x5 + 86 x38 <= 80.500000000
cons43:  - x4 + x6 + 86 x39 <= 81.500000000
cons44:  - x4 + x7 + 86 x40 <= 81.500000000
cons45:  - x5 + x6 + 86 x41 <= 82
cons46:  - x5 + x7 + 86 x42 <= 82
cons47:  - x6 + x7 + 86 x43 <= 83
cons48:  x20 + x26 + x32 + x38 = 1
cons49:  x21 + x27 + x33 + x39 = 1
cons50:  x22 + x28 + x34 + x40 = 1
cons51:  x23 + x29 + x35 + x41 = 1
cons52:  x24 + x30 + x36 + x42 = 1
cons53:  x25 + x31 + x37 + x43 = 1
cons54:  x44 + x48 = 1
cons55:  x45 + x49 = 1
cons56:  x46 + x50 = 1
cons57:  x47 + x51 = 1
cons58:  29.492641850 x0 + 41.611659787 x4 + 7964 x44 <= 9457.739389264
cons59:  27.492641850 x1 + 40.611659787 x5 + 7808 x45 <= 9258.489389264
cons60:  31.492641850 x2 + 38.611659787 x6 + 8128 x46 <= 9632.489389264
cons61:  32.492641850 x3 + 38.611659787 x7 + 8213 x47 <= 9733.739389264
cons62:  -40.507358150 x0 -98.388340213 x4 + 6481 x48 <= -291.260610736
cons63:  -42.507358150 x1 -99.388340213 x5 + 6622 x49 <= -333.510610736
cons64:  -38.507358150 x2 -101.388340213 x6 + 6910 x50 <= 8.489389264
cons65:  -37.507358150 x3 -101.388340213 x7 + 6910 x51 <= 59.739389264
cons66:  29.492641850 x0 + 29.611659787 x4 + 7040 x44 <= 8413.739389264
cons67:  27.492641850 x1 + 30.611659787 x5 + 7033 x45 <= 8383.489389264
cons68:  31.492641850 x2 + 32.611659787 x6 + 7657 x46 <= 9101.489389264
cons69:  32.492641850 x3 + 32.611659787 x7 + 7742 x47 <= 9202.739389264
cons70:  -40.507358150 x0 -110.388340213 x4 + 7357 x48 <= -375.260610736
cons71:  -42.507358150 x1 -109.388340213 x5 + 7357 x49 <= -398.510610736
cons72:  -38.507358150 x2 -107.388340213 x6 + 7357 x50 <= -24.510610736
cons73:  -37.507358150 x3 -107.388340213 x7 + 7357 x51 <= 26.739389264
cons74:  39.492641850 x0 + 41.611659787 x4 + 8389 x44 <= 10032.739389264
cons75:  41.492641850 x1 + 40.611659787 x5 + 8389 x45 <= 10049.489389264
cons76:  37.492641850 x2 + 38.611659787 x6 + 8389 x46 <= 9983.489389264
cons77:  36.492641850 x3 + 38.611659787 x7 + 8389 x47 <= 9969.739389264
cons78:  -30.507358150 x0 -98.388340213 x4 + 6096 x48 <= -176.260610736
cons79:  -28.507358150 x1 -99.388340213 x5 + 6097 x49 <= -158.510610736
cons80:  -32.507358150 x2 -101.388340213 x6 + 6673 x50 <= 71.489389264
cons81:  -33.507358150 x3 -101.388340213 x7 + 6750 x51 <= 99.739389264
cons82:  39.492641850 x0 + 29.611659787 x4 + 7465 x44 <= 8988.739389264
cons83:  41.492641850 x1 + 30.611659787 x5 + 7614 x45 <= 9174.489389264
cons84:  37.492641850 x2 + 32.611659787 x6 + 7918 x46 <= 9452.489389264
cons85:  36.492641850 x3 + 32.611659787 x7 + 7918 x47 <= 9438.739389264
cons86:  -30.507358150 x0 -110.388340213 x4 + 6972 x48 <= -260.260610736
cons87:  -28.507358150 x1 -109.388340213 x5 + 6832 x49 <= -223.510610736
cons88:  -32.507358150 x2 -107.388340213 x6 + 7120 x50 <= 38.489389264
cons89:  -33.507358150 x3 -107.388340213 x7 + 7197 x51 <= 66.739389264
Bounds
 11.500000000 <= x0 <= 57.500000000
 12.500000000 <= x1 <= 56.500000000
 10.500000000 <= x2 <= 58.500000000
 10 <= x3 <= 59
 7 <= x4 <= 87
 6.500000000 <= x5 <= 87.500000000
 5.500000000 <= x6 <= 88.500000000
 5.500000000 <= x7 <= 88.500000000
 0 <= x20 <= 1
 0 <= x21 <= 1
 0 <= x22 <= 1
 0 <= x23 <= 1
 0 <= x24 <= 1
 0 <= x25 <= 1
 0 <= x26 <= 1
 0 <= x27 <= 1
 0 <= x28 <= 1
 0 <= x29 <= 1
 0 <= x30 <= 1
 0 <= x31 <= 1
 0 <= x32 <= 1
 0 <= x33 <= 1
 0 <= x34 <= 1
 0 <= x35 <= 1
 0 <= x36 <= 1
 0 <= x37 <= 1
 0 <= x38 <= 1
 0 <= x39 <= 1
 0 <= x40 <= 1
 0 <= x41 <= 1
 0 <= x42 <= 1
 0 <= x43 <= 1
 0 <= x44 <= 1
 0 <= x45 <= 1
 0 <= x46 <= 1
 0 <= x47 <= 1
 0 <= x48 <= 1
 0 <= x49 <= 1
 0 <= x50 <= 1
 0 <= x51 <= 1
Integers
x20 x21 x22 x23 x24 x25 x26 x27 x28 x29 
x30 x31 x32 x33 x34 x35 x36 x37 x38 x39 
x40 x41 x42 x43 x48 x49 x50 x51 
End
